20
5
2005002
0
0
68 64 67 66 69 
1
0
51 57 51 54 59 
2
0
18 24 27 26 26 
3
0
23 16 21 17 14 
4
0
31 37 37 34 34 
5
0
15 17 13 15 11 
6
0
59 64 62 58 57 
7
0
60 50 53 59 56 
8
0
11 9 5 5 11 
9
0
4 4 8 1 7 
10
0
28 28 31 28 26 
11
0
31 27 25 32 33 
12
0
59 57 60 58 56 
13
0
63 59 65 64 58 
14
0
30 28 27 22 22 
15
0
28 21 27 28 26 
16
0
75 76 69 75 72 
17
0
39 44 35 35 44 
18
0
8 3 3 9 5 
19
0
9 10 10 18 18 
